p cnf 17 20
2 -13 6 0
-3 -7 17 -11 0
-13 5 14 0
-14 6 -16 0
-14 -5 -3 0
-15 5 0
-16 10 13 -7 -11 -8 -1 -9 17 -2 15 12 5 -6 0
7 17 -13 -14 0
16 1 0
-8 -16 0
10 15 -17 -2 13 4 7 -16 1 -11 -3 -9 -6 -5 -8 14 0
-3 -6 -15 -17 8 11 10 4 -7 16 1 9 14 0
-9 16 -17 12 0
5 -9 0
1 -2 0
15 -17 -5 0
-13 6 -15 0
-4 10 0
-7 4 16 0
8 15 -10 -14 0
